(set-info :smt-lib-version 2.6)
(set-logic LIA)
(set-info
  :source |
 Generated by PSyCO 0.1
 More info in N. P. Lopes and J. Monteiro. Weakest Precondition Synthesis for
 Compiler Optimizations, VMCAI'14.
|)
(set-info :category "industrial")
(set-info :status unsat)
(declare-fun R_S1_V5 () Bool)
(declare-fun W_S2_V5 () Bool)
(declare-fun W_S2_V3 () Bool)
(declare-fun W_S1_V5 () Bool)
(declare-fun R_S2_V1 () Bool)
(declare-fun W_S1_V1 () Bool)
(declare-fun R_S2_V3 () Bool)
(declare-fun R_S2_V2 () Bool)
(declare-fun W_S1_V2 () Bool)
(declare-fun R_S2_V5 () Bool)
(declare-fun R_S1_V1 () Bool)
(declare-fun R_S1_V3 () Bool)
(declare-fun R_S1_V2 () Bool)
(declare-fun R_S2_V4 () Bool)
(declare-fun DISJ_W_S2_R_S2 () Bool)
(declare-fun R_S1_V4 () Bool)
(declare-fun W_S1_V4 () Bool)
(declare-fun DISJ_W_S1_R_S1 () Bool)
(declare-fun W_S2_V4 () Bool)
(declare-fun W_S1_V3 () Bool)
(declare-fun W_S2_V1 () Bool)
(declare-fun W_S2_V2 () Bool)
(declare-fun DISJ_W_S2_R_S1 () Bool)
(declare-fun DISJ_W_S1_W_S2 () Bool)
(declare-fun DISJ_W_S1_R_S2 () Bool)
(assert
 (let (($x56 (and W_S2_V5 R_S1_V5)))
 (let (($x19872 (not $x56)))
 (let (($x796 (not W_S2_V3)))
 (let (($x44 (and W_S1_V5 W_S2_V5)))
 (let (($x19874 (not $x44)))
 (let (($x37 (and W_S1_V1 R_S2_V1)))
 (let (($x19909 (not $x37)))
 (let (($x177 (not R_S2_V3)))
 (let (($x33 (and W_S1_V2 R_S2_V2)))
 (let (($x19729 (not $x33)))
 (let (($x31 (and W_S1_V5 R_S2_V5)))
 (let (($x19812 (not $x31)))
 (let
 (($x1274
   (forall
    ((V4_0 Int) (V5_0 Int) 
     (V2_0 Int) (V3_0 Int) 
     (V1_0 Int) (MW_S1_V4 Bool) 
     (MW_S1_V5 Bool) (MW_S1_V2 Bool) 
     (MW_S1_V3 Bool) (MW_S1_V1 Bool) 
     (MW_S2_V4 Bool) (MW_S2_V5 Bool) 
     (MW_S2_V2 Bool) (MW_S2_V3 Bool) 
     (MW_S2_V1 Bool) (S1_V4_!5047 Int) 
     (S1_V4_!5057 Int) (S1_V4_!5072 Int) 
     (S1_V4_!5077 Int) (S2_V4_!5052 Int) 
     (S2_V4_!5062 Int) (S2_V4_!5067 Int) 
     (S2_V5_!5053 Int) (S2_V5_!5063 Int) 
     (S2_V5_!5068 Int) (S1_V1_!5051 Int) 
     (S1_V1_!5061 Int) (S1_V1_!5076 Int) 
     (S1_V1_!5081 Int) (S1_V3_!5050 Int) 
     (S1_V3_!5060 Int) (S1_V3_!5075 Int) 
     (S1_V3_!5080 Int) (S1_V2_!5049 Int) 
     (S1_V2_!5059 Int) (S1_V2_!5074 Int) 
     (S1_V2_!5079 Int) (S2_V1_!5056 Int) 
     (S2_V1_!5066 Int) (S2_V1_!5071 Int) 
     (S2_V2_!5054 Int) (S2_V2_!5064 Int) 
     (S2_V2_!5069 Int) (S2_V3_!5055 Int) 
     (S2_V3_!5065 Int) (S2_V3_!5070 Int) 
     (S1_V5_!5048 Int) (S1_V5_!5058 Int) 
     (S1_V5_!5073 Int) (S1_V5_!5078 Int))
    (let ((?x19970 (ite MW_S2_V1 S2_V1_!5071 V1_0)))
    (let ((?x19876 (ite MW_S1_V1 S1_V1_!5076 ?x19970)))
    (let ((?x20041 (+ 1 ?x19876)))
    (let ((?x19878 (ite MW_S1_V1 S1_V1_!5081 ?x20041)))
    (let ((?x19858 (ite MW_S1_V1 S1_V1_!5051 V1_0)))
    (let ((?x19735 (ite MW_S2_V1 S2_V1_!5056 ?x19858)))
    (let ((?x2666 (+ 1 ?x19735)))
    (let ((?x19816 (ite MW_S1_V1 S1_V1_!5061 ?x2666)))
    (let ((?x18961 (ite MW_S2_V1 S2_V1_!5066 ?x19816)))
    (let (($x19044 (= ?x18961 ?x19878)))
    (let ((?x19329 (ite MW_S2_V3 S2_V3_!5070 V3_0)))
    (let ((?x19798 (ite MW_S1_V3 S1_V3_!5080 ?x19329)))
    (let ((?x18741 (ite MW_S1_V3 S1_V3_!5050 V3_0)))
    (let ((?x19017 (ite MW_S2_V3 S2_V3_!5055 ?x18741)))
    (let ((?x18791 (ite MW_S1_V3 S1_V3_!5060 ?x19017)))
    (let ((?x19096 (ite MW_S2_V3 S2_V3_!5065 ?x18791)))
    (let (($x20397 (= ?x19096 ?x19798)))
    (let ((?x20154 (ite MW_S2_V2 S2_V2_!5069 V2_0)))
    (let ((?x20328 (ite MW_S1_V2 S1_V2_!5079 ?x20154)))
    (let ((?x10718 (ite MW_S1_V2 S1_V2_!5049 V2_0)))
    (let ((?x18681 (ite MW_S2_V2 S2_V2_!5054 ?x10718)))
    (let ((?x19161 (ite MW_S1_V2 S1_V2_!5059 ?x18681)))
    (let ((?x20357 (ite MW_S2_V2 S2_V2_!5064 ?x19161)))
    (let (($x19931 (= ?x20357 ?x20328)))
    (let ((?x19159 (ite MW_S2_V5 S2_V5_!5068 V5_0)))
    (let ((?x18769 (ite MW_S1_V5 S1_V5_!5078 ?x19159)))
    (let ((?x19445 (ite MW_S1_V5 S1_V5_!5048 V5_0)))
    (let ((?x19140 (ite MW_S2_V5 S2_V5_!5053 ?x19445)))
    (let ((?x18814 (ite MW_S1_V5 S1_V5_!5058 ?x19140)))
    (let ((?x17731 (ite MW_S2_V5 S2_V5_!5063 ?x18814)))
    (let (($x19917 (= ?x17731 ?x18769)))
    (let ((?x19918 (ite MW_S2_V4 S2_V4_!5067 V4_0)))
    (let ((?x18750 (ite MW_S1_V4 S1_V4_!5077 ?x19918)))
    (let ((?x19599 (ite MW_S1_V4 S1_V4_!5047 V4_0)))
    (let ((?x19087 (ite MW_S2_V4 S2_V4_!5052 ?x19599)))
    (let ((?x18788 (ite MW_S1_V4 S1_V4_!5057 ?x19087)))
    (let ((?x19820 (ite MW_S2_V4 S2_V4_!5062 ?x18788)))
    (let (($x19951 (= ?x19820 ?x18750)))
    (let (($x17667 (and $x19951 $x19917 $x19931 $x20397 $x19044)))
    (let ((?x19195 (+ (- 1) ?x20328)))
    (let (($x19175 (>= ?x19878 ?x19195)))
    (let ((?x20275 (ite MW_S1_V2 S1_V2_!5074 ?x20154)))
    (let (($x20402 (<= ?x20275 ?x20041)))
    (let (($x20296 (not $x20402)))
    (let (($x20295 (<= ?x20154 ?x19970)))
    (let (($x12262 (not $x20295)))
    (let ((?x20280 (+ (- 1) ?x20357)))
    (let (($x1315 (>= ?x18961 ?x20280)))
    (let (($x5032 (<= ?x18681 ?x2666)))
    (let (($x2364 (not $x5032)))
    (let (($x8204 (<= V2_0 V1_0)))
    (let (($x20234 (not $x8204)))
    (let (($x20340 (and $x20234 $x2364 $x1315 $x12262 $x20296 $x19175)))
    (let (($x12234 (not $x20340)))
    (let (($x20321 (not MW_S2_V1)))
    (let (($x16568 (not MW_S2_V3)))
    (let (($x13957 (not MW_S2_V2)))
    (let (($x20337 (not MW_S2_V5)))
    (let (($x20287 (or $x20337 W_S2_V5)))
    (let (($x20241 (not MW_S1_V1)))
    (let (($x20342 (or $x20241 W_S1_V1)))
    (let (($x20248 (not MW_S1_V2)))
    (let (($x20007 (or $x20248 W_S1_V2)))
    (let (($x5066 (not MW_S1_V5)))
    (let (($x19913 (or $x5066 W_S1_V5)))
    (let (($x20385 (not MW_S1_V4)))
    (let (($x20240 (= S1_V5_!5078 S1_V5_!5073)))
    (let ((?x16517 (+ (- 1) ?x19970)))
    (let (($x20238 (= ?x19876 ?x16517)))
    (let (($x166 (not R_S1_V1)))
    (let (($x20224 (or $x166 $x20238)))
    (let ((?x20227 (ite MW_S1_V3 S1_V3_!5075 ?x19329)))
    (let (($x16680 (= ?x20227 ?x19329)))
    (let (($x164 (not R_S1_V3)))
    (let (($x16591 (or $x164 $x16680)))
    (let (($x20351 (= ?x20275 ?x20154)))
    (let (($x162 (not R_S1_V2)))
    (let (($x20398 (or $x162 $x20351)))
    (let ((?x19823 (ite MW_S1_V5 S1_V5_!5073 ?x19159)))
    (let (($x20388 (= ?x19823 ?x19159)))
    (let (($x160 (not R_S1_V5)))
    (let (($x4147 (or $x160 $x20388)))
    (let (($x20079 (and $x4147 $x20398 $x16591 $x20224)))
    (let (($x1365 (not $x20079)))
    (let (($x3485 (or $x1365 $x20240)))
    (let (($x898 (= S1_V5_!5058 S1_V5_!5078)))
    (let (($x753 (= ?x19735 ?x19876)))
    (let (($x996 (or $x166 $x753)))
    (let (($x16611 (= ?x19017 ?x20227)))
    (let (($x3891 (or $x164 $x16611)))
    (let (($x18702 (= ?x18681 ?x20275)))
    (let (($x20190 (or $x162 $x18702)))
    (let (($x20120 (= ?x19140 ?x19823)))
    (let (($x5326 (or $x160 $x20120)))
    (let (($x20082 (and $x5326 $x20190 $x3891 $x996)))
    (let (($x20074 (not $x20082)))
    (let (($x20093 (or $x20074 $x898)))
    (let (($x20622 (= S1_V5_!5058 S1_V5_!5073)))
    (let (($x19919 (= ?x19735 ?x16517)))
    (let (($x18937 (or $x166 $x19919)))
    (let (($x19879 (= ?x19017 ?x19329)))
    (let (($x19901 (or $x164 $x19879)))
    (let (($x19950 (= ?x18681 ?x20154)))
    (let (($x18734 (or $x162 $x19950)))
    (let (($x18798 (= ?x19140 ?x19159)))
    (let (($x19850 (or $x160 $x18798)))
    (let (($x20083 (and $x19850 $x18734 $x19901 $x18937)))
    (let (($x20084 (not $x20083)))
    (let (($x20162 (or $x20084 $x20622)))
    (let (($x20643 (= S1_V5_!5058 S1_V5_!5048)))
    (let ((?x4987 (+ (- 1) V1_0)))
    (let (($x20169 (= ?x19735 ?x4987)))
    (let (($x19750 (or $x166 $x20169)))
    (let (($x19721 (= ?x19017 V3_0)))
    (let (($x19961 (or $x164 $x19721)))
    (let (($x19916 (= ?x18681 V2_0)))
    (let (($x1215 (or $x162 $x19916)))
    (let (($x19870 (= ?x19140 V5_0)))
    (let (($x19910 (or $x160 $x19870)))
    (let (($x8373 (and $x19910 $x1215 $x19961 $x19750)))
    (let (($x19787 (not $x8373)))
    (let (($x1191 (or $x19787 $x20643)))
    (let (($x9840 (= S1_V5_!5048 S1_V5_!5078)))
    (let (($x19751 (= V1_0 ?x20041)))
    (let (($x19835 (or $x166 $x19751)))
    (let (($x17745 (= V3_0 ?x20227)))
    (let (($x19838 (or $x164 $x17745)))
    (let (($x19727 (= V2_0 ?x20275)))
    (let (($x19733 (or $x162 $x19727)))
    (let (($x20496 (= V5_0 ?x19823)))
    (let (($x19753 (or $x160 $x20496)))
    (let (($x19719 (and $x19753 $x19733 $x19838 $x19835)))
    (let (($x19712 (not $x19719)))
    (let (($x1513 (or $x19712 $x9840)))
    (let (($x19935 (= S1_V5_!5048 S1_V5_!5073)))
    (let (($x18792 (= V1_0 ?x19970)))
    (let (($x19085 (or $x166 $x18792)))
    (let (($x20137 (= V3_0 ?x19329)))
    (let (($x2400 (or $x164 $x20137)))
    (let (($x19154 (= V2_0 ?x20154)))
    (let (($x19388 (or $x162 $x19154)))
    (let (($x3722 (= V5_0 ?x19159)))
    (let (($x19069 (or $x160 $x3722)))
    (let (($x1403 (and $x19069 $x19388 $x2400 $x19085)))
    (let (($x1473 (not $x1403)))
    (let (($x20163 (or $x1473 $x19935)))
    (let (($x19190 (= S2_V3_!5070 S2_V3_!5055)))
    (let (($x19188 (= V1_0 ?x19858)))
    (let (($x179 (not R_S2_V1)))
    (let (($x19226 (or $x179 $x19188)))
    (let (($x18972 (= V2_0 ?x10718)))
    (let (($x175 (not R_S2_V2)))
    (let (($x18733 (or $x175 $x18972)))
    (let (($x19016 (= V5_0 ?x19445)))
    (let (($x173 (not R_S2_V5)))
    (let (($x19043 (or $x173 $x19016)))
    (let (($x19690 (= V4_0 ?x19599)))
    (let (($x171 (not R_S2_V4)))
    (let (($x19688 (or $x171 $x19690)))
    (let (($x20361 (and $x19688 $x19043 $x18733 $x19226)))
    (let (($x19974 (not $x20361)))
    (let (($x20186 (or $x19974 $x19190)))
    (let (($x19748 (= S2_V3_!5065 S2_V3_!5070)))
    (let (($x1235 (= ?x19816 V1_0)))
    (let (($x1310 (or $x179 $x1235)))
    (let (($x19074 (= ?x19161 V2_0)))
    (let (($x19080 (or $x175 $x19074)))
    (let (($x19068 (= ?x18814 V5_0)))
    (let (($x18913 (or $x173 $x19068)))
    (let (($x19018 (= ?x18788 V4_0)))
    (let (($x1175 (or $x171 $x19018)))
    (let (($x19801 (and $x1175 $x18913 $x19080 $x1310)))
    (let (($x19804 (not $x19801)))
    (let (($x19807 (or $x19804 $x19748)))
    (let (($x19092 (= S2_V3_!5065 S2_V3_!5055)))
    (let (($x20008 (= ?x19816 ?x19858)))
    (let (($x5285 (or $x179 $x20008)))
    (let (($x19122 (= ?x19161 ?x10718)))
    (let (($x18783 (or $x175 $x19122)))
    (let (($x19439 (= ?x18814 ?x19445)))
    (let (($x19440 (or $x173 $x19439)))
    (let (($x18968 (= ?x18788 ?x19599)))
    (let (($x19051 (or $x171 $x18968)))
    (let (($x3852 (and $x19051 $x19440 $x18783 $x5285)))
    (let (($x19708 (not $x3852)))
    (let (($x20184 (or $x19708 $x19092)))
    (let (($x19098 (= S2_V2_!5069 S2_V2_!5054)))
    (let (($x20016 (or $x19974 $x19098)))
    (let (($x18912 (= S2_V2_!5064 S2_V2_!5069)))
    (let (($x16559 (or $x19804 $x18912)))
    (let (($x19443 (= S2_V2_!5064 S2_V2_!5054)))
    (let (($x20379 (or $x19708 $x19443)))
    (let (($x18842 (= S2_V1_!5071 S2_V1_!5066)))
    (let (($x13243 (= V1_0 ?x19816)))
    (let (($x19842 (or $x179 $x13243)))
    (let (($x1591 (= V2_0 ?x19161)))
    (let (($x19060 (or $x175 $x1591)))
    (let (($x19686 (= V5_0 ?x18814)))
    (let (($x19687 (or $x173 $x19686)))
    (let (($x19010 (= V4_0 ?x18788)))
    (let (($x19113 (or $x171 $x19010)))
    (let (($x20195 (and $x19113 $x19687 $x19060 $x19842)))
    (let (($x19742 (not $x20195)))
    (let (($x17788 (or $x19742 $x18842)))
    (let (($x19940 (= S2_V1_!5071 S2_V1_!5056)))
    (let (($x19785 (or $x19974 $x19940)))
    (let (($x11582 (= S2_V1_!5066 S2_V1_!5056)))
    (let (($x19758 (or $x19708 $x11582)))
    (let (($x20110 (= S1_V2_!5079 S1_V2_!5074)))
    (let (($x20005 (or $x1365 $x20110)))
    (let (($x20055 (= S1_V2_!5079 S1_V2_!5059)))
    (let (($x1204 (= ?x19876 ?x19735)))
    (let (($x19979 (or $x166 $x1204)))
    (let (($x20050 (= ?x20227 ?x19017)))
    (let (($x1428 (or $x164 $x20050)))
    (let (($x19803 (= ?x20275 ?x18681)))
    (let (($x2669 (or $x162 $x19803)))
    (let (($x17733 (= ?x19823 ?x19140)))
    (let (($x1475 (or $x160 $x17733)))
    (let (($x1440 (and $x1475 $x2669 $x1428 $x19979)))
    (let (($x1539 (not $x1440)))
    (let (($x1395 (or $x1539 $x20055)))
    (let (($x15507 (= S1_V2_!5079 S1_V2_!5049)))
    (let (($x19710 (= ?x19876 ?x4987)))
    (let (($x18823 (or $x166 $x19710)))
    (let (($x18744 (= ?x20227 V3_0)))
    (let (($x17577 (or $x164 $x18744)))
    (let (($x19035 (= ?x20275 V2_0)))
    (let (($x18739 (or $x162 $x19035)))
    (let (($x19048 (= ?x19823 V5_0)))
    (let (($x19050 (or $x160 $x19048)))
    (let (($x1199 (and $x19050 $x18739 $x17577 $x18823)))
    (let (($x1535 (not $x1199)))
    (let (($x1253 (or $x1535 $x15507)))
    (let (($x18763 (= S1_V2_!5074 S1_V2_!5059)))
    (let (($x18827 (= ?x19970 ?x2666)))
    (let (($x18985 (or $x166 $x18827)))
    (let (($x18789 (= ?x19329 ?x19017)))
    (let (($x18762 (or $x164 $x18789)))
    (let (($x20378 (= ?x20154 ?x18681)))
    (let (($x20399 (or $x162 $x20378)))
    (let (($x3751 (= ?x19159 ?x19140)))
    (let (($x995 (or $x160 $x3751)))
    (let (($x1442 (and $x995 $x20399 $x18762 $x18985)))
    (let (($x1354 (not $x1442)))
    (let (($x1544 (or $x1354 $x18763)))
    (let (($x19882 (= S1_V2_!5049 S1_V2_!5074)))
    (let (($x20161 (or $x1473 $x19882)))
    (let (($x19764 (= S1_V2_!5049 S1_V2_!5059)))
    (let (($x19880 (= V1_0 ?x2666)))
    (let (($x19054 (or $x166 $x19880)))
    (let (($x17716 (= V3_0 ?x19017)))
    (let (($x1412 (or $x164 $x17716)))
    (let (($x1233 (= V2_0 ?x18681)))
    (let (($x1449 (or $x162 $x1233)))
    (let (($x20151 (= V5_0 ?x19140)))
    (let (($x19813 (or $x160 $x20151)))
    (let (($x1484 (and $x19813 $x1449 $x1412 $x19054)))
    (let (($x1371 (not $x1484)))
    (let (($x20088 (or $x1371 $x19764)))
    (let (($x19892 (= S1_V3_!5080 S1_V3_!5075)))
    (let (($x20156 (or $x1365 $x19892)))
    (let (($x20177 (= S1_V3_!5080 S1_V3_!5060)))
    (let (($x1297 (or $x1539 $x20177)))
    (let (($x1179 (= S1_V3_!5060 S1_V3_!5075)))
    (let (($x1367 (or $x20084 $x1179)))
    (let (($x19784 (= S1_V3_!5050 S1_V3_!5080)))
    (let (($x1534 (or $x19712 $x19784)))
    (let (($x20197 (= S1_V3_!5050 S1_V3_!5075)))
    (let (($x20105 (or $x1473 $x20197)))
    (let (($x19782 (= S1_V3_!5050 S1_V3_!5060)))
    (let (($x1136 (or $x1371 $x19782)))
    (let (($x19728 (= S1_V1_!5081 S1_V1_!5076)))
    (let (($x905 (or $x1365 $x19728)))
    (let (($x19709 (= S1_V1_!5061 S1_V1_!5081)))
    (let (($x1340 (or $x20074 $x19709)))
    (let (($x19908 (= S1_V1_!5061 S1_V1_!5076)))
    (let (($x1067 (or $x20084 $x19908)))
    (let (($x19778 (= S1_V1_!5061 S1_V1_!5051)))
    (let (($x1474 (or $x19787 $x19778)))
    (let (($x18736 (= S1_V1_!5051 S1_V1_!5081)))
    (let (($x1510 (or $x19712 $x18736)))
    (let (($x19773 (= S1_V1_!5051 S1_V1_!5076)))
    (let (($x20221 (or $x1473 $x19773)))
    (let (($x19855 (= S2_V5_!5068 S2_V5_!5063)))
    (let (($x20497 (or $x19742 $x19855)))
    (let (($x19924 (= S2_V5_!5068 S2_V5_!5053)))
    (let (($x14409 (or $x19974 $x19924)))
    (let (($x19865 (= S2_V5_!5053 S2_V5_!5063)))
    (let (($x1211 (= ?x19858 ?x19816)))
    (let (($x13875 (or $x179 $x1211)))
    (let (($x19864 (= ?x10718 ?x19161)))
    (let (($x19881 (or $x175 $x19864)))
    (let (($x19829 (= ?x19445 ?x18814)))
    (let (($x20212 (or $x173 $x19829)))
    (let (($x19702 (= ?x19599 ?x18788)))
    (let (($x19703 (or $x171 $x19702)))
    (let (($x19714 (and $x19703 $x20212 $x19881 $x13875)))
    (let (($x20066 (not $x19714)))
    (let (($x20199 (or $x20066 $x19865)))
    (let (($x19843 (= S2_V4_!5067 S2_V4_!5052)))
    (let (($x20201 (or $x19974 $x19843)))
    (let (($x19960 (= S2_V4_!5062 S2_V4_!5067)))
    (let (($x19805 (or $x19804 $x19960)))
    (let (($x19811 (= S2_V4_!5062 S2_V4_!5052)))
    (let (($x19800 (or $x19708 $x19811)))
    (let (($x19895 (= S1_V4_!5072 S1_V4_!5077)))
    (let (($x11328 (= ?x19970 ?x20041)))
    (let (($x19830 (or $x166 $x11328)))
    (let (($x19718 (= ?x19329 ?x20227)))
    (let (($x20077 (or $x164 $x19718)))
    (let (($x20194 (= ?x20154 ?x20275)))
    (let (($x20106 (or $x162 $x20194)))
    (let (($x19695 (= ?x19159 ?x19823)))
    (let (($x19832 (or $x160 $x19695)))
    (let (($x20189 (and $x19832 $x20106 $x20077 $x19830)))
    (let (($x1257 (not $x20189)))
    (let (($x1015 (or $x1257 $x19895)))
    (let (($x19834 (= S1_V4_!5072 S1_V4_!5047)))
    (let (($x11743 (= ?x19970 V1_0)))
    (let (($x19972 (or $x166 $x11743)))
    (let (($x8261 (= ?x19329 V3_0)))
    (let (($x20158 (or $x164 $x8261)))
    (let (($x19698 (= ?x20154 V2_0)))
    (let (($x19699 (or $x162 $x19698)))
    (let (($x19862 (= ?x19159 V5_0)))
    (let (($x11472 (or $x160 $x19862)))
    (let (($x19788 (and $x11472 $x19699 $x20158 $x19972)))
    (let (($x19791 (not $x19788)))
    (let (($x19755 (or $x19791 $x19834)))
    (let (($x19781 (= S1_V4_!5057 S1_V4_!5077)))
    (let (($x20075 (or $x20074 $x19781)))
    (let (($x20366 (= S1_V4_!5057 S1_V4_!5072)))
    (let (($x20181 (or $x20084 $x20366)))
    (let (($x1547 (= S1_V4_!5057 S1_V4_!5047)))
    (let (($x17759 (or $x19787 $x1547)))
    (let (($x5362 (= S1_V4_!5047 S1_V4_!5077)))
    (let (($x20319 (or $x19712 $x5362)))
    (let
    (($x1223
      (and $x20319 $x17759 $x20181 $x20075 $x19755 $x1015 $x19800 $x19805
      $x20201 $x20199 $x14409 $x20497 $x20221 $x1510 $x1474 $x1067 $x1340
      $x905 $x1136 $x20105 $x1534 $x1367 $x1297 $x20156 $x20088 $x20161
      $x1544 $x1253 $x1395 $x20005 $x19758 $x19785 $x17788 $x20379 $x16559
      $x20016 $x20184 $x19807 $x20186 $x20163 $x1513 $x1191 $x20162 $x20093
      $x3485 $x20385 $x19913 $x20007 $x20342 $x20287 $x13957 $x16568 $x20321)))
    (let (($x1673 (not $x1223))) (or $x1673 $x12234 $x17667))))))))))))))))))))))))))))))))))))))))))))))))))))))))))))))))))))))))))))))))))))))))))))))))))))))))))))))))))))))))))))))))))))))))))))))))))))))))))))))))))))))))))))))))))))))))))))))))))))))))))))))))))))))))))))))))))))))))))))))))))))))))))))))))))))))))))))))))))))))))))))))))))))))))))))))))))))))))))))))))))))))))))))))))))))))))
 (let (($x65 (and W_S2_V5 R_S2_V5)))
 (let (($x19717 (or R_S2_V4 $x65)))
 (let (($x1527 (not $x19717)))
 (let (($x19715 (= DISJ_W_S2_R_S2 $x1527)))
 (let (($x158 (not R_S1_V4)))
 (let (($x754 (not W_S1_V4)))
 (let (($x23 (and W_S1_V1 R_S1_V1)))
 (let (($x18 (and W_S1_V2 R_S1_V2)))
 (let (($x15 (and W_S1_V5 R_S1_V5)))
 (let (($x19739 (or $x15 $x18 R_S1_V3 $x23)))
 (let (($x19871 (not $x19739)))
 (let (($x19867 (= DISJ_W_S1_R_S1 $x19871)))
 (let (($x786 (not W_S2_V1)))
 (let (($x783 (not W_S2_V2)))
 (and DISJ_W_S1_R_S2 DISJ_W_S1_W_S2 DISJ_W_S2_R_S1 $x783 $x786 W_S1_V3
 W_S2_V4 $x19867 $x754 $x158 $x19715 $x1274 $x19812 $x19729 $x177 $x19909
 $x19874 $x796 $x19872)))))))))))))))))))))))))))))
(assert
 (let (($x179 (not R_S2_V1)))
 (let (($x12278 (and $x179 DISJ_W_S2_R_S2))) (not $x12278))))
(check-sat)
(exit)

